words_hard_train/7274.qaiger
aag 79 22 0 1 57
2
4
8
16
18
22
26
30
34
48
60
62
72
74
78
86
88
112
114
128
144
146
159
6 3 5
10 7 8
12 6 9
14 11 13
20 17 19
24 20 23
28 24 27
32 28 31
36 32 35
38 15 36
40 14 37
42 39 41
44 33 34
46 45 37
50 5 49
52 46 50
54 43 53
56 16 18
58 57 21
64 61 63
66 59 64
68 58 65
70 67 69
76 73 75
80 77 79
82 76 78
84 81 83
90 87 89
92 91 19
94 90 18
96 93 95
98 85 96
100 71 98
102 47 51
104 100 103
106 54 104
108 25 26
110 109 29
116 113 115
118 111 116
120 110 117
122 119 121
124 29 30
126 125 33
130 129 5
132 126 131
134 127 130
136 133 135
138 123 137
140 21 22
142 141 25
148 145 147
150 142 149
152 143 148
154 151 153
156 138 155
158 106 156
i0 1 x2[7]
i1 1 x1[7]
i2 2 y2[7]
i3 2 y2[2]
i4 2 y2[1]
i5 2 y2[3]
i6 2 y2[4]
i7 2 y2[5]
i8 2 y2[6]
i9 1 x2[6]
i10 1 x1[4]
i11 1 x2[2]
i12 1 x1[2]
i13 1 x2[0]
i14 2 y2[0]
i15 1 x1[3]
i16 1 x2[1]
i17 1 x1[6]
i18 1 x2[4]
i19 1 x2[5]
i20 1 x1[5]
i21 1 x2[3]
o0 bool[0]
c
simplified
  !=
    or
      1 x2
      >> 2
        1 x1
    subtract
      1
      2 y2
