words_hard_train/7274.qaiger.qdimacs
p cnf 79 172
a 64 1 2 36 37 72 73 43 44 24 57 56 30 31 0
e 3 4 5 6 7 8 9 10 11 12 13 14 15 16 17 18 19 20 21 22 23 25 26 27 28 29 32 33 34 35 38 39 40 41 42 45 46 47 48 49 50 51 52 53 54 55 58 59 60 61 62 63 65 66 67 68 69 70 71 74 75 76 77 78 79 0
1 2 3 0
-1 -3 0
-2 -3 0
3 -4 5 0
-3 -5 0
4 -5 0
-3 4 6 0
3 -6 0
-4 -6 0
5 6 7 0
-5 -7 0
-6 -7 0
8 9 10 0
-8 -10 0
-9 -10 0
-10 11 12 0
10 -12 0
-11 -12 0
-12 13 14 0
12 -14 0
-13 -14 0
-14 15 16 0
14 -16 0
-15 -16 0
-16 17 18 0
16 -18 0
-17 -18 0
7 -18 19 0
-7 -19 0
18 -19 0
-7 18 20 0
7 -20 0
-18 -20 0
19 20 21 0
-19 -21 0
-20 -21 0
16 -17 22 0
-16 -22 0
17 -22 0
22 18 23 0
-22 -23 0
-18 -23 0
2 24 25 0
-2 -25 0
-24 -25 0
-23 -25 26 0
23 -26 0
25 -26 0
21 26 27 0
-21 -27 0
-26 -27 0
-8 -9 28 0
8 -28 0
9 -28 0
28 10 29 0
-28 -29 0
-10 -29 0
30 31 32 0
-30 -32 0
-31 -32 0
29 -32 33 0
-29 -33 0
32 -33 0
-29 32 34 0
29 -34 0
-32 -34 0
33 34 35 0
-33 -35 0
-34 -35 0
36 37 38 0
-36 -38 0
-37 -38 0
38 39 40 0
-38 -40 0
-39 -40 0
-38 -39 41 0
38 -41 0
39 -41 0
40 41 42 0
-40 -42 0
-41 -42 0
43 44 45 0
-43 -45 0
-44 -45 0
45 9 46 0
-45 -46 0
-9 -46 0
-45 -9 47 0
45 -47 0
9 -47 0
46 47 48 0
-46 -48 0
-47 -48 0
42 -48 49 0
-42 -49 0
48 -49 0
35 -49 50 0
-35 -50 0
49 -50 0
23 25 51 0
-23 -51 0
-25 -51 0
-50 51 52 0
50 -52 0
-51 -52 0
-27 -52 53 0
27 -53 0
52 -53 0
12 -13 54 0
-12 -54 0
13 -54 0
54 14 55 0
-54 -55 0
-14 -55 0
56 57 58 0
-56 -58 0
-57 -58 0
55 -58 59 0
-55 -59 0
58 -59 0
-55 58 60 0
55 -60 0
-58 -60 0
59 60 61 0
-59 -61 0
-60 -61 0
14 -15 62 0
-14 -62 0
15 -62 0
62 16 63 0
-62 -63 0
-16 -63 0
64 2 65 0
-64 -65 0
-2 -65 0
-63 65 66 0
63 -66 0
-65 -66 0
63 -65 67 0
-63 -67 0
65 -67 0
66 67 68 0
-66 -68 0
-67 -68 0
61 68 69 0
-61 -69 0
-68 -69 0
10 -11 70 0
-10 -70 0
11 -70 0
70 12 71 0
-70 -71 0
-12 -71 0
72 73 74 0
-72 -74 0
-73 -74 0
-71 74 75 0
71 -75 0
-74 -75 0
71 -74 76 0
-71 -76 0
74 -76 0
75 76 77 0
-75 -77 0
-76 -77 0
-69 77 78 0
69 -78 0
-77 -78 0
-53 -78 79 0
53 -79 0
78 -79 0
-79 0
